% demand
num_movements = 47;
loading_factor = [1550, 950, 1500, 1100, 1300, 900, 1250, 1450, 1550, 1100, 1500, 1750, 1400, 1450, 950, 1050, 1000, 1750, 1700, 800, 1450, 2000, 900, 1850, 2000, 900, 1000, 2000, 1050, 1250, 1200, 850, 950, 2000, 850, 1350, 800, 1600, 1650, 1450, 1150, 1350, 900, 850, 1350, 1000, 1300];
pickup_time = [0, 0, 1, 2, 2, 2, 2, 2, 2, 2, 3, 3, 4, 4, 4, 4, 5, 6, 7, 7, 7, 7, 7, 7, 8, 8, 9, 9, 9, 10, 10, 10, 10, 10, 10, 10, 10, 10, 11, 11, 11, 11, 11, 11, 11, 11, 11];
delivery_time = [1, 1, 3, 4, 3, 7, 3, 5, 3, 3, 6, 5, 7, 7, 5, 6, 7, 9, 9, 8, 8, 8, 9, 8, 10, 9, 10, 10, 10, 11, 11, 11, 11, 11, 11, 11, 11, 11, 12, 12, 12, 12, 12, 12, 12, 12, 12];

% transporter definition
total_capacity = 11000;
num_decks = 4;
capacity = [3000, 3000, 1000, 4000];

% ways out of decks
num_ways_out = 2;
paths_out = array3d(decks, ways_out, decks, [
% ways out of deck d1
2, 4, 0, 0, 3, 4, 0, 0, 

% ways out of deck d2
4, 0, 0, 0, 0, 0, 0, 0,	

% ways out of deck d3
4, 0, 0, 0, 0, 0, 0, 0,	

% ways out of deck d4
0, 0, 0, 0,	0, 0, 0, 0,	

]);

